* Signature: 0xcc4a1e773b1069b3
NAME lp_typeD_065
OBJSENSE MAX
ROWS
 N  OBJ
 L  c0      
 L  c1      
 G  c2      
 G  c3      
 L  c_key_upper
 G  c_key_lower
 G  _chain_constr_1
 G  _chain_constr_2
 G  _chain_constr_3
 G  _chain_constr_4
 G  _chain_cycle
COLUMNS
    x0        OBJ       0.934562904012687
    x0        c0        1.6433365756859188e+00
    x0        c1        5.4243165298487683e-01
    x0        c2        7.1369724567842607e-01
    x0        c3        5.2522786539382460e-01
    x0        c_key_upper  1.0786131002228641e+00
    x0        c_key_lower  1.0786131002228641e+00
    x1        OBJ       1.0184868653158670e+00
    x1        c0        9.0563673038225667e-01
    x1        c1        9.5424864986676328e-01
    x1        c2        0.889127981721809
    x1        c3        1.0598322830069697e+00
    x1        c_key_upper  1.0526069794214929e+00
    x1        c_key_lower  1.0526069794214929e+00
    x2        OBJ       1.4245159519262962e+00
    x2        c0        0.743499506583523
    x2        c1        1.5349852158553783e+00
    x2        c2        1.9331045342774340e+00
    x2        c3        1.7247817419422826e+00
    x2        c_key_upper  1.9002953606862882e+00
    x2        c_key_lower  1.9002953606862882e+00
    x3        OBJ       1.3774505195216884e+00
    x3        c0        1.6085389195901179e+00
    x3        c1        8.6384882672074825e-01
    x3        c2        5.1139862756103649e-01
    x3        c3        1.7832554086802743e+00
    x3        c_key_upper  1.5322425697205109e+00
    x3        c_key_lower  1.5322425697205109e+00
    x4        OBJ       1.1860635162150484e+00
    x4        c0        7.5656886979088556e-01
    x4        c1        0.926498138856516
    x4        c2        1.2248256642129980e+00
    x4        c3        1.0632088662723329e+00
    x4        c_key_upper  1.9024483269831072e+00
    x4        c_key_lower  1.9024483269831072e+00
    x5        OBJ       8.2052935046845143e-01
    x5        c0        9.4327027503109351e-01
    x5        c1        1.5348279817795496e+00
    x5        c2        6.2117818535249958e-01
    x5        c3        1.8917117330071573e+00
    x5        c_key_upper  1.7710560724975353e+00
    x5        c_key_lower  1.7710560724975353e+00
    _chain_var_0  _chain_constr_1  -1
    _chain_var_0  _chain_cycle  1
    _chain_var_1  _chain_constr_1  1
    _chain_var_1  _chain_constr_2  -1
    _chain_var_2  _chain_constr_2  1
    _chain_var_2  _chain_constr_3  -1
    _chain_var_3  _chain_constr_3  1
    _chain_var_3  _chain_constr_4  -1
    _chain_var_4  _chain_constr_4  1
    _chain_var_4  _chain_cycle  -1
RHS
    RHS1      c0        3.6391924371663862e+01
    RHS1      c1        3.7610865159268904e+01
    RHS1      c2        7.4179603094178574e+00
    RHS1      c3        8.1585244102582433e+00
    RHS1      c_key_upper  4.6186312047658987e+01
    RHS1      c_key_lower  2.3093156023829494e+01
    RHS1      _chain_constr_1  10
    RHS1      _chain_constr_2  10
    RHS1      _chain_constr_3  10
    RHS1      _chain_constr_4  10
    RHS1      _chain_cycle  10
BOUNDS
 UP BND1      x0        10
 UP BND1      x1        10
 UP BND1      x2        10
 UP BND1      x3        10
 UP BND1      x4        10
 UP BND1      x5        10
 UP BND1      _chain_var_0  100
 UP BND1      _chain_var_1  100
 UP BND1      _chain_var_2  100
 UP BND1      _chain_var_3  100
 UP BND1      _chain_var_4  100
ENDATA
